(set-logic QF_SLIA)
(declare-fun var0 () String)
(assert (not (str.in_re var0 (re.++ ((_ re.loop 15 531) (re.++ (re.union (str.to_re "I~]") (re.union (str.to_re "?") (re.union (str.to_re "dje") (str.to_re "qr")))) (re.++ (re.union (str.to_re "NH7") (re.union (str.to_re "^") (re.union (str.to_re "&x+") (str.to_re "3")))) (re.++ (re.union (str.to_re "d;O") (re.union (str.to_re "_XQ") (re.union (str.to_re "P") (str.to_re "I&")))) (re.union (str.to_re "RM*") (re.union (str.to_re "&") (re.union (str.to_re "_") (str.to_re "p")))))))) (re.++ ((_ re.loop 6 805) (re.++ (re.union (str.to_re "YX") (re.union (str.to_re "|C") (re.union (str.to_re "$") (str.to_re "<8")))) (re.++ (re.union (str.to_re "F") (re.union (str.to_re "fH") (re.union (str.to_re ":") (str.to_re "!y")))) (re.++ (re.union (str.to_re "v") (re.union (str.to_re "nd") (re.union (str.to_re "J") (str.to_re "o<")))) (re.union (str.to_re ";I") (re.union (str.to_re "|(") (re.union (str.to_re "Y)") (str.to_re "[C<")))))))) (re.++ ((_ re.loop 10 289) (re.++ (re.union (str.to_re "w") (re.union (str.to_re "Z") (re.union (str.to_re ">") (str.to_re "s")))) (re.++ (re.union (str.to_re "bk") (re.union (str.to_re "@") (re.union (str.to_re "kh+") (str.to_re "R5D")))) (re.++ (re.union (str.to_re "c[#") (re.union (str.to_re "*h") (re.union (str.to_re ")j/") (str.to_re "h0S")))) (re.union (str.to_re "H") (re.union (str.to_re "&") (re.union (str.to_re "wc") (str.to_re "?u")))))))) ((_ re.loop 4 266) (re.++ (re.union (str.to_re ">iM") (re.union (str.to_re "\u0022") (re.union (str.to_re "AZ+") (str.to_re "Ifd")))) (re.++ (re.union (str.to_re "~[") (re.union (str.to_re "Q") (re.union (str.to_re "?[") (str.to_re "r+")))) (re.++ (re.union (str.to_re "a") (re.union (str.to_re "F\\v") (re.union (str.to_re "}h}") (str.to_re "P]N")))) (re.union (str.to_re "#.Y") (re.union (str.to_re "ba") (re.union (str.to_re "8") (str.to_re "{"))))))))))))))
(assert (not (str.in_re var0 (re.++ ((_ re.loop 19 231) (re.++ (re.union (str.to_re "^Ok") (re.union (str.to_re "vh%") (re.union (str.to_re "N<'") (str.to_re "T")))) (re.++ (re.union (str.to_re "xb_") (re.union (str.to_re "W,^") (re.union (str.to_re "&") (str.to_re "Sf[")))) (re.++ (re.union (str.to_re "~`") (re.union (str.to_re "L_5") (re.union (str.to_re "/") (str.to_re "vh")))) (re.union (str.to_re "xW") (re.union (str.to_re "}pO") (re.union (str.to_re "?G") (str.to_re "91\\")))))))) (re.++ ((_ re.loop 0 117) (re.++ (re.union (str.to_re "3M3") (re.union (str.to_re "y2") (re.union (str.to_re "_") (str.to_re "'L")))) (re.++ (re.union (str.to_re "9C]") (re.union (str.to_re "Ud") (re.union (str.to_re "#F") (str.to_re "%t1")))) (re.++ (re.union (str.to_re "l") (re.union (str.to_re "-~") (re.union (str.to_re "z") (str.to_re "/e")))) (re.union (str.to_re ":") (re.union (str.to_re "`5") (re.union (str.to_re "&V") (str.to_re "nD")))))))) (re.++ ((_ re.loop 8 500) (re.++ (re.union (str.to_re "Fud") (re.union (str.to_re "bZ0") (re.union (str.to_re "d.") (str.to_re "0")))) (re.++ (re.union (str.to_re "%z_") (re.union (str.to_re "z") (re.union (str.to_re ",\u0022") (str.to_re "S0z")))) (re.++ (re.union (str.to_re "zI") (re.union (str.to_re "4") (re.union (str.to_re "q\\~") (str.to_re "I")))) (re.union (str.to_re "*N") (re.union (str.to_re "J") (re.union (str.to_re "/4") (str.to_re "Yl")))))))) ((_ re.loop 10 401) (re.++ (re.union (str.to_re "y?j") (re.union (str.to_re "ZoL") (re.union (str.to_re "AS") (str.to_re "J5P")))) (re.++ (re.union (str.to_re "<m") (re.union (str.to_re "jH") (re.union (str.to_re "Af") (str.to_re "@p")))) (re.++ (re.union (str.to_re "n~") (re.union (str.to_re "mB") (re.union (str.to_re "f") (str.to_re ":1")))) (re.union (str.to_re "H") (re.union (str.to_re "2q") (re.union (str.to_re "&q\u0022") (str.to_re "!p"))))))))))))))
(assert (not (str.in_re var0 (re.++ (re.* re.allchar) (re.++ (re.union (str.to_re "<") (re.union (str.to_re ">") (re.union (str.to_re "'") (re.union (str.to_re "\u0022") (str.to_re "&"))))) (re.* re.allchar))))))
(assert (<= 50 (str.len var0)))
(check-sat)
(get-model)
